NAME: concorde91
TYPE: TSP
DIMENSION: 25 
EDGE_WEIGHT_TYPE: EUC_2D
NODE_COORD_SECTION
1 82 98
2 55 89
3 7 19
4 6 67
5 98 91
6 57 63
7 82 73
8 60 87
9 74 61
10 80 100
11 90 87
12 27 77
13 8 54
14 2 18
15 53 89
16 91 78
17 4 6
18 44 91
19 78 84
20 24 67
21 56 2
22 54 19
23 30 14
24 33 14
25 60 93
